# Solution for model GasLib-40
# Objective value = 4.7865851178540119e+01
loadshed[innode_1] 0
loadshed[innode_2] 0
loadshed[innode_3] 0
loadshed[innode_4] 0
loadshed[innode_5] 0
loadshed[innode_6] 0
loadshed[innode_7] 0
loadshed[innode_8] 0
loadshed[source_1] -9.2823482836089211e-02
loadshed[source_2] 6.6495559187908615e-02
loadshed[source_3] 3.2910334950845366e-01
loadshed[sink_1] 4.4969294891512690e-02
loadshed[sink_2] 0
loadshed[sink_3] 0
loadshed[sink_4] 0
loadshed[sink_5] 0
loadshed[sink_6] 0
loadshed[sink_7] 0
loadshed[sink_8] 0
loadshed[sink_9] 0
loadshed[sink_10] 0
loadshed[sink_11] 0
loadshed[sink_12] 1
loadshed[sink_13] 0
loadshed[sink_14] 0
loadshed[sink_15] 0
loadshed[sink_16] 0
loadshed[sink_17] 0
loadshed[sink_18] 0
loadshed[sink_19] 0
loadshed[sink_20] 0
loadshed[sink_21] 1
loadshed[sink_22] 0
loadshed[sink_23] 0
loadshed[sink_24] 0.881859821758074
loadshed[sink_25] 0
loadshed[sink_26] 0
loadshed[sink_27] 0
loadshed[sink_28] 0
loadshed[sink_29] 0
flow[source_1,sink_3] 1.7276476796363590e+02
flow[innode_1,sink_16] 1.6354166666666970e+01
flow[innode_6,sink_13] 8.4169288302779677e+00
flow[sink_13,sink_14] -7.9372378363887
flow[sink_14,sink_10] -2.4291404503055368e+01
flow[sink_25,sink_26] 0
flow[sink_26,sink_9] 6.7764684750294862e+01
flow[sink_9,sink_18] 5.1410518083628190e+01
flow[sink_26,sink_4] -8.4118851416961519e+01
flow[sink_4,sink_20] -1.0047301808362812e+02
flow[sink_18,sink_6] 3.5056351416961519e+01
flow[sink_25,innode_8] -1.4005643463029955e+02
flow[sink_6,sink_7] -1.3270713239500196e+01
flow[sink_6,sink_22] 3.1972897989795058e+01
flow[sink_7,sink_24] 1.9320841649981637e+00
flow[sink_22,sink_1] 1.5618731323128388e+01
flow[sink_24,sink_21] 0
flow[sink_21,sink_12] 0
flow[sink_7,sink_5] -3.1556964071165041e+01
flow[sink_5,sink_17] -4.7911130737831741e+01
flow[sink_17,sink_4] 0
flow[sink_17,sink_8] -6.4265297404498384e+01
flow[sink_3,sink_23] 16.3541666666697
flow[sink_8,sink_20] -8.0619464071165055e+01
flow[sink_25,sink_20] 1.9744664882145983e+02
flow[sink_25,sink_15] -8.2161309688104737e+01
flow[sink_15,sink_29] -5.5817109321229729e+01
flow[sink_29,sink_28] 1.6354166666667879e+01
flow[sink_29,sink_2] 5.9052533700208350e+01
flow[sink_2,sink_15] 4.2698367033541686e+01
flow[sink_29,innode_7] -1.4757797635477263e+02
flow[innode_4,sink_19] 0
flow[sink_19,innode_3] 3.5796395770828127e+01
flow[innode_4,innode_5] 1.0606223783638926e+02
flow[sink_27,innode_5] -1.0606223783638926e+02
flow[sink_27,sink_19] 8.9708071169722587e+01
flow[sink_10,sink_11] 3.2708333333333641e+01
flow[sink_10,innode_2] -3.7557508732227546e+01
flow[sink_10,innode_3] -3.5796395770828127e+01
flow[innode_6,sink_25] -8.4169288302779677e+00
flow[sink_11,innode_1] 1.6354166666666970e+01
flow[sink_19,innode_2] 3.7557508732227546e+01
flow[source_3,innode_4] 1.0606223783638926e+02
flow[source_2,innode_7] 1.4757797635477263e+02
flow[sink_3,innode_8] 1.4005643463029955e+02
pressure[innode_1] 7.5997338033439760e+01
pressure[innode_2] 7.8134108795132832e+01
pressure[innode_3] 7.8054841730200422e+01
pressure[innode_4] 81.01325
pressure[innode_5] 8.0940294800137011e+01
pressure[innode_6] 7.5032286775557807e+01
pressure[innode_7] 81.01325
pressure[innode_8] 80.4357633792311
pressure[source_1] 81.01325
pressure[source_2] 81.01325
pressure[source_3] 81.01325
pressure[sink_1] 1.0132500000000002e+00
pressure[sink_2] 7.5570249945115222e+01
pressure[sink_3] 80.4357633792311
pressure[sink_4] 2.0590441636802996e+01
pressure[sink_5] 1.6349636988491685e+01
pressure[sink_6] 3.0431671469320865e+00
pressure[sink_7] 3.2253424071176955e+00
pressure[sink_8] 2.2343566545069191e+01
pressure[sink_9] 5.8394618802020517e+00
pressure[sink_10] 76.1490393410433
pressure[sink_11] 7.5997338033439760e+01
pressure[sink_12] 1.01325
pressure[sink_13] 7.4985885653515950e+01
pressure[sink_14] 7.5000090016727341e+01
pressure[sink_15] 7.5430849187319225e+01
pressure[sink_16] 7.4975688198622080e+01
pressure[sink_17] 1.9918669916860338e+01
pressure[sink_18] 3.9792761062399382e+00
pressure[sink_19] 7.8134108795132832e+01
pressure[sink_20] 2.7961609417454934e+01
pressure[sink_21] 1.01325
pressure[sink_22] 2.0291821940959376e+00
pressure[sink_23] 8.0271045367571318e+01
pressure[sink_24] 1.01325
pressure[sink_25] 7.5032286775557807e+01
pressure[sink_26] 9.89535315834412
pressure[sink_27] 8.0060174208037736e+01
pressure[sink_28] 76.7708349949508
pressure[sink_29] 7.7066117268567979e+01
interdiction[source_1,sink_3] 0
interdiction[innode_1,sink_16] 0
interdiction[innode_6,sink_13] 0
interdiction[sink_13,sink_14] 0
interdiction[sink_14,sink_10] 0
interdiction[sink_25,sink_26] 1
interdiction[sink_26,sink_9] 0
interdiction[sink_9,sink_18] 0
interdiction[sink_26,sink_4] 0
interdiction[sink_4,sink_20] 0
interdiction[sink_18,sink_6] 0
interdiction[sink_25,innode_8] 0
interdiction[sink_6,sink_7] 0
interdiction[sink_6,sink_22] 0
interdiction[sink_7,sink_24] 0
interdiction[sink_22,sink_1] 0
interdiction[sink_24,sink_21] 0
interdiction[sink_21,sink_12] 0
interdiction[sink_7,sink_5] 0
interdiction[sink_5,sink_17] 0
interdiction[sink_17,sink_4] 1
interdiction[sink_17,sink_8] 0
interdiction[sink_3,sink_23] 0
interdiction[sink_8,sink_20] 0
interdiction[sink_25,sink_20] 0
interdiction[sink_25,sink_15] 0
interdiction[sink_15,sink_29] 0
interdiction[sink_29,sink_28] 0
interdiction[sink_29,sink_2] 0
interdiction[sink_2,sink_15] 0
interdiction[sink_29,innode_7] 0
interdiction[innode_4,sink_19] 1
interdiction[sink_19,innode_3] 0
interdiction[innode_4,innode_5] 0
interdiction[sink_27,innode_5] 0
interdiction[sink_27,sink_19] 0
interdiction[sink_10,sink_11] 0
interdiction[sink_10,innode_2] 0
interdiction[sink_10,innode_3] 0
interdiction[innode_6,sink_25] 0
interdiction[sink_11,innode_1] 0
interdiction[sink_19,innode_2] 0
interdiction[source_3,innode_4] 0
interdiction[source_2,innode_7] 0
interdiction[sink_3,innode_8] 0
WCcheckFlow[source_1,sink_3] 39
WCcheckFlow[innode_1,sink_16] 1
WCcheckFlow[innode_6,sink_13] 13
WCcheckFlow[sink_13,sink_14] 12
WCcheckFlow[sink_14,sink_10] 11
WCcheckFlow[sink_25,sink_26] 0
WCcheckFlow[sink_26,sink_9] 12
WCcheckFlow[sink_9,sink_18] 11
WCcheckFlow[sink_26,sink_4] -13
WCcheckFlow[sink_4,sink_20] -14
WCcheckFlow[sink_18,sink_6] 10
WCcheckFlow[sink_25,innode_8] -36
WCcheckFlow[sink_6,sink_7] 7
WCcheckFlow[sink_6,sink_22] 2
WCcheckFlow[sink_7,sink_24] 3
WCcheckFlow[sink_22,sink_1] 1
WCcheckFlow[sink_24,sink_21] 2
WCcheckFlow[sink_21,sink_12] 1
WCcheckFlow[sink_7,sink_5] 3
WCcheckFlow[sink_5,sink_17] 2
WCcheckFlow[sink_17,sink_4] 0
WCcheckFlow[sink_17,sink_8] 1
WCcheckFlow[sink_3,sink_23] 1
WCcheckFlow[sink_8,sink_20] 0
WCcheckFlow[sink_25,sink_20] 15
WCcheckFlow[sink_25,sink_15] 6
WCcheckFlow[sink_15,sink_29] 5
WCcheckFlow[sink_29,sink_28] 1
WCcheckFlow[sink_29,sink_2] 1
WCcheckFlow[sink_2,sink_15] 0
WCcheckFlow[sink_29,innode_7] 2
WCcheckFlow[innode_4,sink_19] 0
WCcheckFlow[sink_19,innode_3] -5
WCcheckFlow[innode_4,innode_5] -2
WCcheckFlow[sink_27,innode_5] 3
WCcheckFlow[sink_27,sink_19] -4
WCcheckFlow[sink_10,sink_11] 3
WCcheckFlow[sink_10,innode_2] 1
WCcheckFlow[sink_10,innode_3] 6
WCcheckFlow[innode_6,sink_25] -14
WCcheckFlow[sink_11,innode_1] 2
WCcheckFlow[sink_19,innode_2] 0
WCcheckFlow[source_3,innode_4] -1
WCcheckFlow[source_2,innode_7] -1
WCcheckFlow[sink_3,innode_8] 37
